DIMENSION: 10
EDGE_WEIGHT_TYPE: EXPLICIT
EDGE_WEIGHT_FORMAT: FULL_MATRIX
EDGE_WEIGHT_SECTION:
32767 28 43 16 32767 79 33 32767 31 81 
28 32767 32767 55 61 62 83 32767 27 19 
43 32767 32767 88 35 52 16 81 32767 32767 
16 55 88 32767 12 14 58 46 58 8 
32767 61 35 12 32767 42 32767 21 47 97 
79 62 52 14 42 32767 32767 32767 48 45 
33 83 16 58 32767 32767 32767 39 32767 23 
32767 32767 81 46 21 32767 39 32767 84 81 
31 27 32767 58 47 48 32767 84 32767 34 
81 19 32767 8 97 45 23 81 34 32767 
EOF